Tried aggregator 2 times.
MIP Presolve eliminated 7 rows and 2 columns.
MIP Presolve modified 60 coefficients.
Aggregator did 60 substitutions.
Reduced MIP has 351 rows, 318 columns, and 897 nonzeros.
Reduced MIP has 185 binaries, 13 generals, 0 SOSs, and 120 indicators.
Presolve time = 0.00 sec. (0.77 ticks)
Found incumbent of value 11.000000 after 0.01 sec. (1.40 ticks)
Probing fixed 30 vars, tightened 70 bounds.
Probing time = 0.01 sec. (1.80 ticks)
Tried aggregator 2 times.
MIP Presolve eliminated 42 rows and 32 columns.
MIP Presolve modified 160 coefficients.
Aggregator did 78 substitutions.
Reduced MIP has 231 rows, 208 columns, and 647 nonzeros.
Reduced MIP has 125 binaries, 83 generals, 0 SOSs, and 100 indicators.
Presolve time = 0.00 sec. (0.89 ticks)
Probing time = 0.00 sec. (0.46 ticks)
Tried aggregator 1 time.
Reduced MIP has 231 rows, 208 columns, and 647 nonzeros.
Reduced MIP has 125 binaries, 83 generals, 0 SOSs, and 100 indicators.
Presolve time = 0.00 sec. (0.30 ticks)
Probing time = 0.00 sec. (0.46 ticks)
Clique table members: 10.
MIP emphasis: balance optimality and feasibility.
MIP search method: dynamic search.
Parallel mode: deterministic, using up to 4 threads.
Root relaxation solution time = 0.00 sec. (0.49 ticks)

        Nodes                                         Cuts/
   Node  Left     Objective  IInf  Best Integer    Best Bound    ItCnt     Gap

*     0+    0                           11.0000        2.0000       70   81.82%
      0     0        2.0000    76       11.0000        2.0000       70   81.82%
      0     0        2.0000     4       11.0000      Fract: 1       79   81.82%
*     0+    0                            2.0000        2.0000       79    0.00%
      0     0        cutoff              2.0000        2.0000       79    0.00%
Elapsed time = 0.05 sec. (13.37 ticks, tree = 0.00 MB, solutions = 2)

Root node processing (before b&c):
  Real time             =    0.05 sec. (13.38 ticks)
Parallel b&c, 4 threads:
  Real time             =    0.00 sec. (0.00 ticks)
  Sync time (average)   =    0.00 sec.
  Wait time (average)   =    0.00 sec.
                          ------------
Total (root+branch&cut) =    0.05 sec. (13.38 ticks)
